benchmarks_vrp/CMT12/tsp_classic/CMT12_7.vrp
NAME: CMT12_7
TYPE: CVRP
COMMENT: 819.56 - Cluster Nr.7
DIMENSION: 10
CAPACITY: 200
EDGE_WEIGHT_TYPE: EUC_2D
NODE_COORD_TYPE: TWOD_COORDS
NODE_COORD_SECTION: 
5 65 82
8 70 58
4 67 85
10 62 80
7 65 60
6 72 55
9 40 50
3 68 60
1 63 58
2 75 55
DEPOT_SECTION: 
9
-1
DEMAND_SECTION: 
7 30
1 10
10 30
5 10
2 20
4 20
6 10
8 20
9 0
3 30
EOF
