benchmarks_vrp/CMT12/tsp_classic/CMT12_7.tour
NAME: CMT12_7 solution
TYPE: TOUR
TOUR_SECTION:
9 1 7 3 8 6 2 4 5 10 -1
-1
EOF